887420
69,8,32,56,46,0,36,47,86,44,85,80,6,3,65,94,72,24,77,50,78,28,39,93,25,16,11,18,58,89,33,70,23,42,21,83,91,38,13,51,64,53,97,22,10,27,45,66,60,57,81,15,14,82,34,41,96,1,26,63,4,2,84,88,7,52,90,43,54,71,67,98,35,49,87,75,37,79,12,62,92,48,55,68,74,5,40,17,9,76,19,20,95,29,61,30,59,31,73
